<instance format="XCSP3" type="CSP">
  <variables>
    <var id="x0"> 2 13 16 </var>
    <var id="x1"> 2 3 17 </var>
    <var id="x2"> 3 11 13 15..17 </var>
    <var id="x3"> 2 3 5 11 13 17 </var>
    <var id="x4"> 13 16 17 </var>
    <var id="x5"> 3 11 13 </var>
    <var id="x6"> 3 5 15 16 </var>
    <var id="x7"> 11 16 </var>
    <var id="x8"> 1 7 12 17 </var>
    <var id="x9"> 0 9 13 </var>
    <var id="x10"> 0 1 8 12 13 17 </var>
    <var id="x11"> 1 7 9 17 </var>
    <var id="x12"> 12 13 17 </var>
    <var id="x13"> 1 12 13 </var>
    <var id="x14"> 0 1 7 8 </var>
    <var id="x15"> 12 13 17 </var>
    <var id="x16"> 1 16 17 </var>
    <var id="x17"> 9 11 13 16 </var>
    <var id="x18"> 1 9 11 13 16 </var>
    <var id="x19"> 1 9 10 17 </var>
    <var id="x20"> 11 13 16 17 </var>
    <var id="x21"> 6 9 16 </var>
    <var id="x22"> 1 10 11 16 </var>
    <var as="x20" id="x23"/>
    <var id="x24"> 1 12 16 </var>
    <var id="x25"> 1 3 5 12 14 </var>
    <var id="x26"> 1 3 5 14 </var>
    <var id="x27"> 1 3 7 16 </var>
    <var id="x28"> 3 5 7 17 </var>
    <var id="x29"> 7 14 16 17 </var>
    <var id="x30"> 12 16 17 </var>
    <var id="x31"> 1 7 16 </var>
    <var id="x32"> 1 9 16 </var>
    <var id="x33"> 1 7 16 17 </var>
    <var id="x34"> 1 5 14 </var>
    <var id="x35"> 5 9 14 16 </var>
    <var id="x36"> 1 5 9 16 </var>
    <var id="x37"> 1 17 </var>
    <var id="x38"> 1 7 15 16 </var>
    <var id="x39"> 14..17 </var>
    <var id="x40"> 1 3 4 7 16 17 </var>
    <var id="x41"> 0 1 3 4 14 </var>
    <var id="x42"> 1 4 16 </var>
    <var id="x43"> 0 1 3 4 14 17 </var>
    <var id="x44"> 1 3 4 7 16 </var>
    <var id="x45"> 3 14 16 17 </var>
    <var id="x46"> 0 7 14 16 17 </var>
    <var id="x47"> 1 3 14 </var>
    <var id="x48"> 1 4 17 </var>
    <var id="x49"> 1 13 17 </var>
    <var id="x50"> 1 4 7 17 </var>
    <var id="x51"> 1 4 7 13 15 16 </var>
    <var id="x52"> 7 13 16 17 </var>
    <var id="x53"> 16 17 </var>
    <var id="x54"> 4 13 16 17 </var>
    <var id="x55"> 1 4 17 </var>
    <var id="x56"> 1 2 4 14 17 </var>
    <var id="x57"> 1 6 17 </var>
    <var id="x58"> 1 2 5 9 14 </var>
    <var id="x59"> 2 5 17 </var>
    <var id="x60"> 5 6 9 </var>
    <var id="x61"> 1 4 </var>
    <var id="x62"> 4 14 17 </var>
    <var id="x63"> 3 4 12 </var>
    <var id="x64"> 3 9 13 </var>
    <var id="x65"> 2 4 9 13 </var>
    <var id="x66"> 6 10 12 13 </var>
    <var id="x67"> 2 3 9 </var>
    <var id="x68"> 3 4 13 </var>
    <var id="x69"> 6 9 13 </var>
    <var id="x70"> 3 6 10 12 13 </var>
    <var id="x71"> 3..5 12 </var>
    <var id="x72"> 3 5 11 16 </var>
    <var id="x73"> 4 5 11 16 </var>
    <var id="x74"> 3 5 8 </var>
    <var id="x75"> 3 11 12 16 </var>
    <var id="x76"> 8 10..12 16 </var>
    <var id="x77"> 3 10..12 </var>
    <var id="x78"> 3 5 16 </var>
    <var id="x79"> 0 1 12..14 </var>
    <var id="x80"> 1 11 13 </var>
    <var id="x81"> 0 1 12 14 </var>
    <var id="x82"> 1 14 15 </var>
    <var id="x83"> 1 7 11 13 15 </var>
    <var id="x84"> 7 11 13 </var>
    <var id="x85"> 0 7 13 14 </var>
    <var id="x86"> 1 11..14 </var>
    <var id="x87"> 1 3 4 12 13 </var>
    <var id="x88"> 3 9 13 16 </var>
    <var id="x89"> 1 8 12 13 </var>
    <var id="x90"> 1 4 9 </var>
    <var id="x91"> 3 8 13 </var>
    <var id="x92"> 9 13 16 </var>
    <var id="x93"> 1 4 8 16 </var>
    <var id="x94"> 3 4 12 13 16 </var>
    <var id="x95"> 0 13 16 </var>
    <var id="x96"> 0 13 14 </var>
    <var id="x97"> 11 13 16 </var>
    <var id="x98"> 7 11 13 </var>
    <var id="x99"> 0 10 11 16 </var>
    <var id="x100"> 7 16 </var>
    <var id="x101"> 0 7 10 11 16 </var>
    <var id="x102"> 0 2 4 13 </var>
    <var id="x103"> 0 3 13 14 </var>
    <var id="x104"> 4 14 17 </var>
    <var id="x105"> 3 4 13 </var>
    <var id="x106"> 3 13 14 17 </var>
    <var id="x107"> 2 3 13 17 </var>
    <var id="x108"> 0 17 </var>
    <var id="x109"> 4 13 16 </var>
    <var id="x110"> 3..5 13 </var>
    <var id="x111"> 3 5 8 </var>
    <var id="x112"> 4 5 </var>
    <var id="x113"> 3 5 8 11 13 </var>
    <var id="x114"> 8 11 16 </var>
    <var id="x115"> 3 6 11 13 </var>
    <var id="x116"> 3 4 11 13 16 </var>
    <var id="x117"> 0 12 13 </var>
    <var id="x118"> 3 12 </var>
    <var id="x119"> 0 3 12 14 </var>
    <var id="x120"> 0 8 10 12 13 </var>
    <var id="x121"> 10 14 </var>
    <var id="x122"> 3 11 13 </var>
    <var id="x123"> 3 11..14 </var>
    <var id="x124"> 0 8 10 11 </var>
    <var id="x125"> 0 3 5 11 14 </var>
    <var id="x126"> 0 1 3 4 12 14 </var>
    <var id="x127"> 1 3 5 14 </var>
    <var id="x128"> 1 4 5 14 </var>
    <var id="x129"> 0 11 12 </var>
    <var id="x130"> 1 3 11 12 14 </var>
    <var id="x131"> 3 5 </var>
    <var id="x132"> 3 4 11 12 14 </var>
    <var id="x133"> 0..2 9 12 16 </var>
    <var id="x134"> 1 2 9 11 16 </var>
    <var id="x135"> 0..3 12 </var>
    <var id="x136"> 0 1 12 </var>
    <var id="x137"> 1..3 9 </var>
    <var id="x138"> 0 9 16 </var>
    <var id="x139"> 3 9 16 </var>
    <var as="x75" id="x140"/>
  </variables>
  <constraints>
    <group>
      <allDifferent> %... </allDifferent>
      <args> x0 x1 x2 x3 x4 x5 x6 x7 </args>
      <args> x8 x9 x10 x11 x12 x13 x14 x15 </args>
      <args> x16 x17 x18 x19 x20 x21 x22 x23 </args>
      <args> x24 x25 x26 x27 x28 x29 x30 x31 </args>
      <args> x32 x33 x34 x35 x36 x37 x38 x39 </args>
      <args> x40 x41 x42 x43 x44 x45 x46 x47 </args>
      <args> x48 x49 x50 x51 x52 x53 x54 </args>
      <args> x55 x56 x57 x58 x59 x60 x61 x62 </args>
      <args> x63 x64 x65 x66 x67 x68 x69 x70 </args>
      <args> x71 x72 x73 x74 x75 x76 x77 x78 </args>
      <args> x79 x80 x81 x82 x83 x84 x85 x86 </args>
      <args> x87 x88 x89 x90 x91 x92 x93 x94 </args>
      <args> x95 x96 x97 x98 x99 x100 x101 </args>
      <args> x102 x103 x104 x105 x106 x107 x108 </args>
      <args> x109 x110 x111 x112 x113 x114 x115 x116 </args>
      <args> x117 x118 x119 x120 x121 x122 x123 x124 </args>
      <args> x125 x126 x127 x128 x129 x130 x131 x132 </args>
      <args> x133 x134 x135 x136 x137 x138 x139 x140 </args>
      <args> x0 x24 x32 x95 x102 x109 x117 x133 </args>
      <args> x8 x16 x33 x40 x55 x63 x118 </args>
      <args> x25 x34 x41 x71 x79 x87 x96 x110 </args>
      <args> x9 x17 x35 x64 x72 x88 x103 x125 </args>
      <args> x18 x36 x42 x65 x73 x80 x97 x134 </args>
      <args> x1 x43 x48 x56 x81 x119 x126 x135 </args>
      <args> x10 x37 x49 x57 x66 x89 x120 x136 </args>
      <args> x26 x58 x67 x74 x82 x111 x127 x137 </args>
      <args> x11 x19 x50 x90 x104 x112 x121 x128 </args>
      <args> x27 x38 x44 x51 x68 x83 x105 x122 </args>
      <args> x2 x12 x20 x39 x45 x75 x106 x123 </args>
      <args> x3 x28 x59 x84 x91 x98 x107 x113 </args>
      <args> x4 x29 x46 x52 x69 x85 x92 x138 </args>
      <args> x30 x53 x76 x99 x108 x114 x129 </args>
      <args> x5 x13 x47 x70 x77 x86 x115 x130 </args>
      <args> x6 x21 x60 x78 x100 x131 x139 </args>
      <args> x7 x14 x22 x31 x61 x93 x101 x124 </args>
      <args> x15 x23 x54 x62 x94 x116 x132 x140 </args>
    </group>
  </constraints>
</instance>

